<number of tasks>
250

<cycle time>
1000

<order strength>
0.595


<task times>
1 291
2 463
3 679
4 566
5 601
6 475
7 265
8 360
9 561
10 448
11 683
12 448
13 530
14 413
15 375
16 591
17 450
18 400
19 381
20 735
21 776
22 663
23 752
24 492
25 644
26 602
27 759
28 539
29 292
30 459
31 360
32 394
33 502
34 605
35 538
36 752
37 573
38 575
39 705
40 711
41 631
42 578
43 439
44 374
45 608
46 516
47 438
48 461
49 578
50 459
51 423
52 411
53 453
54 515
55 434
56 558
57 630
58 611
59 150
60 721
61 360
62 335
63 467
64 632
65 411
66 468
67 640
68 679
69 589
70 647
71 586
72 506
73 625
74 611
75 696
76 628
77 646
78 712
79 517
80 545
81 391
82 505
83 741
84 452
85 633
86 683
87 564
88 315
89 456
90 529
91 657
92 574
93 569
94 358
95 509
96 371
97 587
98 335
99 643
100 274
101 515
102 585
103 237
104 609
105 538
106 464
107 630
108 432
109 629
110 395
111 340
112 622
113 765
114 421
115 578
116 437
117 510
118 222
119 410
120 487
121 286
122 492
123 381
124 490
125 249
126 469
127 436
128 614
129 588
130 496
131 653
132 414
133 503
134 561
135 557
136 571
137 353
138 445
139 564
140 488
141 641
142 428
143 359
144 515
145 644
146 410
147 123
148 346
149 482
150 468
151 519
152 376
153 677
154 378
155 504
156 793
157 805
158 517
159 484
160 459
161 422
162 517
163 558
164 297
165 408
166 753
167 539
168 401
169 507
170 427
171 662
172 490
173 355
174 412
175 667
176 542
177 450
178 426
179 514
180 563
181 606
182 468
183 344
184 456
185 546
186 440
187 590
188 496
189 482
190 383
191 249
192 567
193 587
194 413
195 377
196 553
197 541
198 574
199 474
200 220
201 557
202 409
203 316
204 667
205 645
206 513
207 575
208 529
209 445
210 371
211 532
212 413
213 323
214 413
215 620
216 486
217 365
218 332
219 247
220 669
221 419
222 587
223 669
224 436
225 528
226 332
227 459
228 552
229 623
230 367
231 479
232 381
233 545
234 740
235 432
236 457
237 489
238 401
239 663
240 262
241 573
242 427
243 504
244 769
245 515
246 637
247 296
248 683
249 543
250 489

<precedence relations>
1,23
2,23
3,23
4,130
5,56
6,56
7,56
8,56
9,173
10,11
10,12
10,13
10,14
10,15
10,16
10,17
10,18
10,19
10,20
10,21
10,22
11,23
12,23
13,23
14,23
15,23
16,89
17,89
18,35
19,35
20,56
21,220
22,24
22,25
22,26
22,27
22,28
22,29
22,30
22,37
23,31
23,32
23,33
23,34
23,37
23,38
24,35
25,35
26,35
27,35
28,35
29,56
30,36
30,40
30,57
31,89
32,150
33,150
34,56
35,41
35,42
35,43
35,44
35,45
35,46
35,47
35,48
35,49
35,50
35,51
35,53
36,56
37,39
37,40
37,52
38,130
38,137
39,89
40,150
41,56
42,60
42,74
43,54
43,89
44,54
44,77
44,144
45,54
45,55
45,85
45,88
46,145
46,195
47,55
47,125
48,54
48,57
49,107
49,144
50,58
50,113
51,72
51,102
51,128
52,56
53,54
53,55
53,59
54,130
55,115
56,61
56,62
56,63
56,64
56,65
57,220
58,220
59,66
60,127
60,128
60,136
61,150
62,111
62,233
63,67
63,126
64,74
65,70
65,73
65,79
66,68
66,69
66,71
66,72
67,130
68,130
69,115
70,89
71,89
72,150
73,223
74,75
74,76
74,77
74,78
74,79
74,80
75,89
76,89
77,150
78,196
79,173
80,81
80,82
80,83
80,84
80,85
80,86
80,87
81,115
82,89
83,89
84,89
85,150
86,196
87,88
87,90
87,91
87,92
87,104
88,115
89,93
89,94
89,95
89,96
89,97
89,98
89,99
89,100
89,101
90,102
90,108
90,124
93,103
94,104
94,152
96,105
97,106
97,118
101,105
101,113
102,106
103,150
104,127
105,107
105,108
105,112
105,114
106,107
106,109
106,110
106,111
106,113
107,130
108,115
109,150
110,196
111,194
112,123
113,115
114,116
114,117
114,118
115,119
115,120
115,121
115,122
115,123
116,127
117,196
118,124
118,125
119,150
120,127
121,127
122,170
123,129
123,130
123,131
124,126
124,128
124,136
125,136
125,172
126,130
127,131
127,132
127,133
127,134
127,135
127,156
128,170
128,173
129,136
129,137
130,138
130,139
130,140
130,141
130,142
130,143
130,145
130,146
131,150
132,223
136,154
137,144
138,223
139,149
142,197
143,147
143,148
144,177
145,208
145,220
146,148
146,171
146,174
147,150
148,151
148,152
148,154
148,156
149,153
149,155
150,157
150,158
150,159
150,160
150,161
150,162
150,163
150,164
150,165
150,166
150,167
150,168
151,173
152,194
153,194
154,194
155,167
155,175
156,194
156,233
157,194
158,170
158,171
158,172
158,208
159,169
161,246
162,169
165,216
165,248
166,220
167,220
169,173
170,174
170,195
172,175
172,176
172,197
173,178
173,179
173,180
173,181
173,182
173,183
173,184
173,185
173,186
173,187
173,188
173,189
173,190
173,191
173,192
173,193
173,220
174,194
175,195
176,177
177,196
182,197
184,208
186,197
186,245
190,208
191,221
191,222
192,208
193,249
194,198
194,199
194,200
194,201
194,202
194,203
194,204
194,205
194,206
194,207
196,209
196,210
196,211
196,212
196,213
196,214
196,215
197,223
199,245
200,219
202,218
203,217
204,223
205,216
206,217
206,249
210,222
212,221
212,246
214,219
215,248
216,220
219,223
220,224
220,225
220,226
220,227
220,228
220,229
220,230
220,231
220,232
222,223
222,233
223,234
223,235
223,236
223,237
223,238
223,239
223,240
223,241
223,242
223,243
223,244
230,245
239,250
240,247
241,246
242,248
245,249
245,250
248,249
248,250

<end>
